Speck32/MILP/sol/6Round_208.sol
# Objective value = 15.999999999999998
pro0Rd0 2.7755575615628914e-17
pro1Rd0 1.0
pro2Rd0 6.938893903907228e-18
pro3Rd0 1.0
pro4Rd0 6.938893903907228e-18
pro5Rd0 1.0
pro6Rd0 -0.0
pro7Rd0 6.938893903907228e-18
pro8Rd0 3.469446951953614e-18
pro9Rd0 1.5543122344752192e-15
pro10Rd0 0.9999999999999987
pro11Rd0 0.0
pro12Rd0 -0.0
pro13Rd0 -0.0
pro14Rd0 2.7755575615628914e-17
pro0Rd1 -0.0
pro1Rd1 1.0
pro2Rd1 0.0
pro3Rd1 -2.7755575615628914e-17
pro4Rd1 6.938893903907228e-18
pro5Rd1 2.7755575615628914e-17
pro6Rd1 1.0
pro7Rd1 0.0
pro8Rd1 1.0
pro9Rd1 6.938893903907228e-18
pro10Rd1 1.0
pro11Rd1 2.7755575615628914e-17
pro12Rd1 -0.0
pro13Rd1 1.0408340855860843e-17
pro14Rd1 -0.0
pro0Rd2 0.0
pro1Rd2 6.661338147750939e-16
pro2Rd2 6.938893903907228e-18
pro3Rd2 0.0
pro4Rd2 6.938893903907228e-18
pro5Rd2 -0.0
pro6Rd2 -0.0
pro7Rd2 0.0
pro8Rd2 6.661338147750939e-16
pro9Rd2 -0.0
pro10Rd2 4.440892098500626e-16
pro11Rd2 2.7755575615628914e-17
pro12Rd2 2.7755575615628914e-17
pro13Rd2 1.0
pro14Rd2 0.0
pro0Rd3 5.551115123125783e-17
pro1Rd3 9.020562075079397e-17
pro2Rd3 9.194034422677078e-17
pro3Rd3 0.0
pro4Rd3 1.0
pro5Rd3 0.0
pro6Rd3 -0.0
pro7Rd3 -1.1102230246251565e-16
pro8Rd3 -0.0
pro9Rd3 2.7755575615628914e-17
pro10Rd3 1.1102230246251565e-16
pro11Rd3 -0.0
pro12Rd3 0.0
pro13Rd3 6.661338147750939e-16
pro14Rd3 -0.0
pro0Rd4 1.1102230246251565e-16
pro1Rd4 -0.0
pro2Rd4 8.881784197001252e-16
pro3Rd4 0.0
pro4Rd4 0.9999999999999993
pro5Rd4 0.0
pro6Rd4 -6.661338147750939e-16
pro7Rd4 -2.220446049250313e-16
pro8Rd4 -0.0
pro9Rd4 5.551115123125783e-17
pro10Rd4 0.0
pro11Rd4 1.0
pro12Rd4 -0.0
pro13Rd4 -0.0
pro14Rd4 -1.1102230246251565e-16
pro0Rd5 -0.0
pro1Rd5 1.0
pro2Rd5 -8.881784197001252e-16
pro3Rd5 1.0
pro4Rd5 0.9999999999999996
pro5Rd5 -0.0
pro6Rd5 0.0
pro7Rd5 -0.0
pro8Rd5 -2.220446049250313e-16
pro9Rd5 -1.1102230246251565e-16
pro10Rd5 4.440892098500626e-16
pro11Rd5 0.9999999999999964
pro12Rd5 0.0
pro13Rd5 -0.0
pro14Rd5 1.1102230246251565e-15
p0 1.3877787807814457e-17
p1 1.0408340855860843e-17
p2 6.938893903907228e-18
p3 1.5543122344752192e-15
p4 1.5543122344752192e-15
p5 0.0
p6 0.0
p7 0.0
p8 0.0
p9 1.0000000000000002
p10 2.7755575615628914e-17
p11 0.9999999999999996
p12 5.551115123125783e-17
p13 8.326672684688674e-17
p14 -0.0
p15 1.0
p16 1.3877787807814457e-17
p17 2.7755575615628914e-17
p18 1.0
p19 -0.0
p20 1.0
p21 6.938893903907228e-18
p22 1.0
p23 2.0816681711721685e-17
p24 2.7755575615628914e-17
p25 1.3877787807814457e-17
p26 0.0
p27 1.0
p28 -0.0
p29 0.0
p30 0.0
p31 2.7755575615628914e-17
p0Rd1 1.0
p16Rd1 6.938893903907228e-18
temp0Rnd0 1.0
p1Rd1 -0.0
p17Rd1 -0.0
temp1Rnd0 0.0
p2Rd1 6.661338147750939e-16
p18Rd1 0.9999999999999993
temp2Rnd0 1.0
p3Rd1 6.938893903907228e-18
p19Rd1 0.0
temp3Rnd0 6.938893903907228e-18
p4Rd1 1.0
p20Rd1 -5.551115123125783e-17
temp4Rnd0 1.0
p5Rd1 1.3877787807814457e-17
p21Rd1 0.0
temp5Rnd0 1.3877787807814457e-17
p6Rd1 2.7755575615628914e-17
p22Rd1 5.551115123125783e-17
temp6Rnd0 2.7755575615628914e-17
p7Rd1 1.3877787807814457e-17
p23Rd1 -0.0
temp7Rnd0 1.3877787807814457e-17
p8Rd1 0.0
p24Rd1 0.0
temp8Rnd0 0.0
p9Rd1 6.938893903907228e-18
p25Rd1 1.0
temp9Rnd0 1.0
p10Rd1 -0.0
p26Rd1 0.0
temp10Rnd0 0.0
p11Rd1 0.9999999999999993
p27Rd1 0.9999999999999993
temp11Rnd0 0.9999999999999993
p12Rd1 0.0
p28Rd1 0.0
temp12Rnd0 0.0
p13Rd1 0.0
p29Rd1 2.7755575615628914e-17
temp13Rnd0 2.7755575615628914e-17
p14Rd1 0.0
p30Rd1 1.3877787807814457e-17
temp14Rnd0 1.3877787807814457e-17
p15Rd1 2.7755575615628914e-17
p31Rd1 -0.0
temp15Rnd0 2.7755575615628914e-17
temp0 2.7755575615628914e-17
p0Rd2 0.0
p16Rd2 0.9999999999999993
temp0Rnd1 0.9999999999999993
p1Rd2 -0.0
p17Rd2 0.0
temp1Rnd1 0.0
p2Rd2 6.661338147750939e-16
p18Rd2 6.661338147750939e-16
temp2Rnd1 6.661338147750939e-16
p3Rd2 -0.0
p19Rd2 0.0
temp3Rnd1 0.0
p4Rd2 -5.551115123125783e-17
p20Rd2 0.0
temp4Rnd1 0.0
p5Rd2 6.938893903907228e-18
p21Rd2 6.938893903907228e-18
temp5Rnd1 6.938893903907228e-18
p6Rd2 -0.0
p22Rd2 -0.0
temp6Rnd1 -0.0
p7Rd2 1.0
p23Rd2 0.0
temp7Rnd1 1.0
p8Rd2 0.0
p24Rd2 0.0
temp8Rnd1 0.0
p9Rd2 0.9999999999999993
p25Rd2 -0.0
temp9Rnd1 0.9999999999999993
p10Rd2 -0.0
p26Rd2 0.0
temp10Rnd1 0.0
p11Rd2 4.440892098500626e-16
p27Rd2 4.440892098500626e-16
temp11Rnd1 4.440892098500626e-16
p12Rd2 1.3877787807814457e-17
p28Rd2 2.7755575615628914e-17
temp12Rnd1 2.7755575615628914e-17
p13Rd2 2.7755575615628914e-17
p29Rd2 2.7755575615628914e-17
temp13Rnd1 2.7755575615628914e-17
p14Rd2 6.938893903907228e-18
p30Rd2 -0.0
temp14Rnd1 6.938893903907228e-18
p15Rd2 -0.0
p31Rd2 0.0
temp15Rnd1 0.0
temp1 0.0
p0Rd3 0.0
p16Rd3 6.661338147750939e-16
temp0Rnd2 6.661338147750939e-16
p1Rd3 -0.0
p17Rd3 0.0
temp1Rnd2 0.0
p2Rd3 -1.1102230246251565e-16
p18Rd3 1.1102230246251565e-16
temp2Rnd2 1.1102230246251565e-16
p3Rd3 6.938893903907228e-18
p19Rd3 9.194034422677078e-17
temp3Rnd2 6.938893903907228e-18
p4Rd3 0.0
p20Rd3 0.0
temp4Rnd2 0.0
p5Rd3 -0.0
p21Rd3 -0.0
temp5Rnd2 0.0
p6Rd3 -0.0
p22Rd3 -0.0
temp6Rnd2 -0.0
p7Rd3 -0.0
p23Rd3 0.0
temp7Rnd2 0.0
p8Rd3 -0.0
p24Rd3 0.0
temp8Rnd2 0.0
p9Rd3 6.661338147750939e-16
p25Rd3 -1.1102230246251565e-16
temp9Rnd2 8.881784197001252e-16
p10Rd3 -0.0
p26Rd3 2.7755575615628914e-17
temp10Rnd2 2.7755575615628914e-17
p11Rd3 2.7755575615628914e-16
p27Rd3 2.220446049250313e-16
temp11Rnd2 2.220446049250313e-16
p12Rd3 -0.0
p28Rd3 -0.0
temp12Rnd2 0.0
p13Rd3 -0.0
p29Rd3 -0.0
temp13Rnd2 0.0
p14Rd3 1.0
p30Rd3 6.661338147750939e-16
temp14Rnd2 1.0
p15Rd3 -0.0
p31Rd3 0.0
temp15Rnd2 -0.0
temp2 0.0
p0Rd4 3.7470027081099033e-16
p16Rd4 1.1102230246251565e-15
temp0Rnd3 7.771561172376096e-16
p1Rd4 5.551115123125783e-17
p17Rd4 1.6653345369377348e-16
temp1Rnd3 1.6653345369377348e-16
p2Rd4 2.7755575615628914e-16
p18Rd4 2.220446049250313e-16
temp2Rnd3 2.7755575615628914e-16
p3Rd4 0.0
p19Rd4 0.0
temp3Rnd3 -0.0
p4Rd4 0.0
p20Rd4 0.0
temp4Rnd3 0.0
p5Rd4 1.0
p21Rd4 1.0
temp5Rnd3 1.0
p6Rd4 0.0
p22Rd4 -0.0
temp6Rnd3 0.0
p7Rd4 0.0
p23Rd4 -1.1102230246251565e-16
temp7Rnd3 -1.1102230246251565e-16
p8Rd4 -1.1102230246251565e-16
p24Rd4 -1.1102230246251565e-16
temp8Rnd3 -1.1102230246251565e-16
p9Rd4 -1.1102230246251565e-16
p25Rd4 2.7755575615628914e-16
temp9Rnd3 1.942890293094024e-16
p10Rd4 5.551115123125783e-17
p26Rd4 5.551115123125783e-17
temp10Rnd3 5.551115123125783e-17
p11Rd4 2.220446049250313e-16
p27Rd4 2.220446049250313e-16
temp11Rnd3 2.220446049250313e-16
p12Rd4 0.0
p28Rd4 6.661338147750939e-16
temp12Rnd3 6.661338147750939e-16
p13Rd4 0.0
p29Rd4 -0.0
temp13Rnd3 0.0
p14Rd4 6.661338147750939e-16
p30Rd4 0.0
temp14Rnd3 6.661338147750939e-16
p15Rd4 0.0
p31Rd4 -0.0
temp15Rnd3 0.0
temp3 0.0
p0Rd5 8.881784197001252e-16
p16Rd5 -5.828670879282072e-16
temp0Rnd4 2.220446049250313e-16
p1Rd5 0.0
p17Rd5 -2.220446049250313e-16
temp1Rnd4 -1.1102230246251565e-16
p2Rd5 2.220446049250313e-16
p18Rd5 -4.440892098500626e-16
temp2Rnd4 -4.440892098500626e-16
p3Rd5 8.881784197001252e-16
p19Rd5 0.9999999999999993
temp3Rnd4 1.0
p4Rd5 -0.0
p20Rd5 0.0
temp4Rnd4 -0.0
p5Rd5 0.9999999999999994
p21Rd5 0.9999999999999996
temp5Rnd4 0.9999999999999994
p6Rd5 0.0
p22Rd5 -1.1102230246251565e-16
temp6Rnd4 0.0
p7Rd5 1.1102230246251565e-15
p23Rd5 0.0
temp7Rnd4 4.440892098500626e-16
p8Rd5 1.1102230246251565e-15
p24Rd5 0.0
temp8Rnd4 8.881784197001252e-16
p9Rd5 2.7755575615628914e-16
p25Rd5 4.440892098500626e-16
temp9Rnd4 4.440892098500626e-16
p10Rd5 1.1102230246251565e-16
p26Rd5 4.440892098500626e-16
temp10Rnd4 6.661338147750939e-16
p11Rd5 4.440892098500626e-16
p27Rd5 4.440892098500626e-16
temp11Rnd4 4.440892098500626e-16
p12Rd5 0.9999999999999993
p28Rd5 0.9999999999999993
temp12Rnd4 0.9999999999999993
p13Rd5 0.0
p29Rd5 0.0
temp13Rnd4 0.0
p14Rd5 -0.0
p30Rd5 1.1102230246251565e-15
temp14Rnd4 1.1102230246251565e-15
p15Rd5 -1.1102230246251565e-16
p31Rd5 1.1102230246251565e-15
temp15Rnd4 2.220446049250313e-16
temp4 -1.1102230246251565e-16
p0Rd6 -1.1102230246251565e-16
p16Rd6 -4.440892098500626e-16
temp0Rnd5 -4.440892098500626e-16
p1Rd6 -2.220446049250313e-16
p17Rd6 0.9999999999999991
temp1Rnd5 0.9999999999999993
p2Rd6 0.9999999999999996
p18Rd6 0.9999999999999996
temp2Rnd5 0.9999999999999996
p3Rd6 1.0
p19Rd6 4.440892098500626e-16
temp3Rnd5 1.0
p4Rd6 1.0
p20Rd6 1.0
temp4Rnd5 1.0
p5Rd6 0.9999999999999997
p21Rd6 1.0
temp5Rnd5 0.9999999999999997
p6Rd6 -1.1102230246251565e-16
p22Rd6 2.220446049250313e-16
temp6Rnd5 0.0
p7Rd6 0.0
p23Rd6 -2.220446049250313e-16
temp7Rnd5 4.440892098500626e-16
p8Rd6 0.0
p24Rd6 4.440892098500626e-16
temp8Rnd5 4.440892098500626e-16
p9Rd6 0.0
p25Rd6 1.1102230246251565e-15
temp9Rnd5 4.440892098500626e-16
p10Rd6 4.440892098500626e-16
p26Rd6 0.9999999999999991
temp10Rnd5 0.9999999999999993
p11Rd6 8.881784197001252e-16
p27Rd6 8.881784197001252e-16
temp11Rnd5 8.881784197001252e-16
p12Rd6 3.552713678800501e-15
p28Rd6 3.552713678800501e-15
temp12Rnd5 3.552713678800501e-15
p13Rd6 0.0
p29Rd6 -4.440892098500626e-16
temp13Rnd5 0.0
p14Rd6 1.1102230246251565e-15
p30Rd6 -0.0
temp14Rnd5 1.1102230246251565e-16
p15Rd6 1.1102230246251565e-15
p31Rd6 -1.1102230246251565e-15
temp15Rnd5 -2.220446049250313e-16
temp5 1.3322676295501878e-15
